units metal
boundary p p p

atom_style atomic/kk
lattice fcc 3.6
region box block 0 8 0 8 0 8
create_box 1 box
create_atoms 1 box

# labelmap atom 1 Ni  # lammps-kokkos doesn't like this
mass 1 58.693

velocity all create 123 42

run_style verlet/kk

pair_style metatensor/kk nickel-lj.pt device cuda check_consistency off
pair_coeff * * 28

timestep 0.001
fix 1 all nve

thermo 100
thermo_style custom step temp pe etotal press vol cpu

# dump 1 all atom 10 dump.metatensor

run 1000
