units metal
boundary p p p

atom_style atomic
lattice fcc 3.6
region box block 0 8 0 8 0 8
create_box 1 box
create_atoms 1 box

labelmap atom 1 Ni
mass Ni 58.693

velocity all create 123 42

pair_style metatensor nickel-lj.pt device cuda remap_pairs off
# pair_style metatensor nickel-lj-extensions.pt extensions collected-extensions/
pair_coeff * * 28

timestep 0.001
fix 1 all nve

thermo 100
thermo_style custom step temp pe etotal press vol cpu

# dump 1 all atom 10 dump.metatensor

run 1000
