LAMMPS (10 Sep 2025)
OMP_NUM_THREADS environment is not set. Defaulting to 1 thread.
  using 1 OpenMP thread(s) per MPI task
Reading data file ...
  orthogonal box = (0 0 0) to (15.659926 15.659926 15.659926)
  1 by 1 by 1 MPI processor grid
  reading atoms ...
  384 atoms
  read_data CPU = 0.001 seconds

This is an unamed model
=======================

Model references
----------------

Please cite the following references when using this model:
- about the architecture of this model:
  * https://arxiv.org/abs/2305.19302v3

Running simulation on cuda:0 device with float32 data

CITE-CITE-CITE-CITE-CITE-CITE-CITE-CITE-CITE-CITE-CITE-CITE-CITE

Your simulation uses code contributions which should be cited:
- https://arxiv.org/abs/2305.19302v3
The log file lists these citations in BibTeX format.

CITE-CITE-CITE-CITE-CITE-CITE-CITE-CITE-CITE-CITE-CITE-CITE-CITE

cutoff = 4.5
request.cutoff() = 4.5

This is an unamed model
=======================

Model references
----------------

Please cite the following references when using this model:
- about the architecture of this model:
  * https://arxiv.org/abs/2505.19350

Running simulation on cuda:0 device with float32 data
cutoff = 4.5
request.cutoff() = 4.5
Neighbor list info ...
  update: every = 1 steps, delay = 0 steps, check = yes
  max neighbors/atom: 2000, page size: 100000
  master list distance cutoff = 15.5
  ghost atom cutoff = 20
  binsize = 7.75, bins = 3 3 3
  2 neighbor lists, perpetual/occasional/extra = 2 0 0
  (1) pair metatomic, perpetual
      attributes: full, newton on, ghost
      pair build: full/bin/ghost
      stencil: full/ghost/bin/3d
      bin: standard
  (2) fix metatomic, perpetual, copy from (1)
      attributes: full, newton on, ghost
      pair build: copy
      stencil: none
      bin: none
Setting up Verlet run ...
  Unit style    : metal
  Current step  : 0
  Time step     : 0.008
EFLAG_ATOM: 0
Per MPI rank memory allocation (min/avg/max) = 154 | 154 | 154 Mbytes
   Step          Temp          E_pair         E_mol          TotEng         Press     
         0   300           -2002.7449      0             -1987.8929     -79224.941    
EFLAG_ATOM: 0
         1   515.99467     -2013.4471      0             -1987.902      -41132.517    
EFLAG_ATOM: 0
         2   500.14262     -2012.723       0             -1987.9626      40234.455    
EFLAG_ATOM: 0
         3   502.02694     -2012.922       0             -1988.0683      49647.2      
EFLAG_ATOM: 0
         4   475.81821     -2011.582       0             -1988.0259      1898.0497    
EFLAG_ATOM: 0
         5   463.01564     -2010.9231      0             -1988.0007     -22797.107    
EFLAG_ATOM: 0
         6   479.85667     -2011.8143      0             -1988.0582     -9949.3754    
EFLAG_ATOM: 0
         7   515.84244     -2013.715       0             -1988.1773     -1392.0274    
EFLAG_ATOM: 0
         8   540.73193     -2014.8755      0             -1988.1057     -6095.1921    
EFLAG_ATOM: 0
         9   510.45173     -2013.4005      0             -1988.1298     -6124.2556    
EFLAG_ATOM: 0
        10   519.26265     -2013.9471      0             -1988.2402     -1327.2725    
EFLAG_ATOM: 0
        11   498.93728     -2012.8024      0             -1988.1017      1998.8373    
EFLAG_ATOM: 0
        12   519.89607     -2013.8722      0             -1988.1339     -705.52632    
EFLAG_ATOM: 0
        13   528.86919     -2014.2399      0             -1988.0573     -4326.5698    
EFLAG_ATOM: 0
        14   525.28179     -2014.0884      0             -1988.0834      1826.9309    
EFLAG_ATOM: 0
        15   526.9152      -2014.2455      0             -1988.1597      7635.7283    
EFLAG_ATOM: 0
        16   526.36803     -2014.2743      0             -1988.2156      4804.1412    
EFLAG_ATOM: 0
        17   505.61502     -2013.2759      0             -1988.2446     -4171.6727    
EFLAG_ATOM: 0
        18   515.41386     -2013.9772      0             -1988.4608     -9133.6418    
EFLAG_ATOM: 0
        19   510.73748     -2013.8134      0             -1988.5285     -2595.9818    
EFLAG_ATOM: 0
        20   488.99603     -2012.7738      0             -1988.5653      5145.2411    
EFLAG_ATOM: 0
        21   515.4768      -2014.2135      0             -1988.694       813.1969     
EFLAG_ATOM: 0
        22   487.65885     -2012.9952      0             -1988.8529     -9206.4715    
EFLAG_ATOM: 0
        23   476.37161     -2012.405       0             -1988.8215     -5459.4405    
EFLAG_ATOM: 0
        24   499.54584     -2013.6412      0             -1988.9104      2768.3255    
EFLAG_ATOM: 0
        25   489.61789     -2013.1979      0             -1988.9585      3201.1055    
EFLAG_ATOM: 0
        26   511.58218     -2014.3129      0             -1988.9862     -361.36846    
EFLAG_ATOM: 0
        27   481.85002     -2012.8782      0             -1989.0234      3460.0464    
EFLAG_ATOM: 0
        28   482.95766     -2012.9609      0             -1989.0513     -2.4544717    
EFLAG_ATOM: 0
        29   495.28269     -2013.5879      0             -1989.0681     -3489.3261    
EFLAG_ATOM: 0
        30   501.90968     -2014.0317      0             -1989.1839     -5176.7883    
EFLAG_ATOM: 0
        31   477.68127     -2012.8854      0             -1989.237      -360.1428     
EFLAG_ATOM: 0
        32   496.73226     -2013.9083      0             -1989.3168      894.04718    
EFLAG_ATOM: 0
        33   491.67053     -2013.6022      0             -1989.2612     -4634.016     
EFLAG_ATOM: 0
        34   449.09475     -2011.481       0             -1989.2478     -6553.0755    
EFLAG_ATOM: 0
        35   480.78734     -2013.1078      0             -1989.3056      543.12129    
EFLAG_ATOM: 0
        36   493.67302     -2013.7765      0             -1989.3364      4108.5211    
EFLAG_ATOM: 0
        37   445.47688     -2011.4907      0             -1989.4367     -1606.8935    
EFLAG_ATOM: 0
        38   473.48712     -2012.9595      0             -1989.5187     -8330.6346    
EFLAG_ATOM: 0
        39   498.29306     -2014.2794      0             -1989.6106     -4999.7968    
EFLAG_ATOM: 0
        40   467.89423     -2012.7592      0             -1989.5953      2222.8704    
EFLAG_ATOM: 0
        41   459.47383     -2012.3752      0             -1989.6282      4091.4079    
EFLAG_ATOM: 0
        42   488.03358     -2013.7667      0             -1989.6058     -3.2658644    
EFLAG_ATOM: 0
        43   492.77931     -2013.9949      0             -1989.599      -5348.6019    
EFLAG_ATOM: 0
        44   460.08391     -2012.3589      0             -1989.5817     -7145.5929    
EFLAG_ATOM: 0
        45   475.66211     -2013.1255      0             -1989.5771     -2949.9822    
EFLAG_ATOM: 0
        46   480.74118     -2013.4818      0             -1989.6819      894.32376    
EFLAG_ATOM: 0
        47   470.58412     -2012.9536      0             -1989.6566     -602.74445    
EFLAG_ATOM: 0
        48   469.34743     -2012.8917      0             -1989.6559     -3006.0734    
EFLAG_ATOM: 0
        49   486.18609     -2013.6562      0             -1989.5868     -2361.8749    
EFLAG_ATOM: 0
        50   470.76424     -2012.8322      0             -1989.5262     -1748.928     
EFLAG_ATOM: 0
        51   459.44645     -2012.3617      0             -1989.616      -4536.1796    
EFLAG_ATOM: 0
        52   488.18597     -2013.7991      0             -1989.6306     -6166.4071    
EFLAG_ATOM: 0
        53   489.46038     -2013.892       0             -1989.6604     -3009.7148    
EFLAG_ATOM: 0
        54   466.49369     -2012.8275      0             -1989.733      -581.09588    
EFLAG_ATOM: 0
        55   457.63824     -2012.3781      0             -1989.7219     -4570.5418    
EFLAG_ATOM: 0
        56   462.77634     -2012.5841      0             -1989.6736     -5707.3688    
EFLAG_ATOM: 0
        57   476.83379     -2013.309       0             -1989.7025     -2469.4603    
EFLAG_ATOM: 0
        58   481.69022     -2013.5781      0             -1989.7313      1872.4323    
EFLAG_ATOM: 0
        59   483.16856     -2013.7234      0             -1989.8033      51.830612    
EFLAG_ATOM: 0
        60   449.96152     -2012.1028      0             -1989.8267     -4038.1146    
EFLAG_ATOM: 0
        61   455.54408     -2012.3876      0             -1989.8351     -5048.0549    
EFLAG_ATOM: 0
        62   479.58991     -2013.5634      0             -1989.8205     -3816.9796    
EFLAG_ATOM: 0
        63   461.00741     -2012.5271      0             -1989.7042     -574.2998     
EFLAG_ATOM: 0
        64   446.10512     -2011.8584      0             -1989.7732      2790.9573    
EFLAG_ATOM: 0
        65   466.82825     -2012.9146      0             -1989.8035      1681.8836    
EFLAG_ATOM: 0
        66   481.23804     -2013.7188      0             -1989.8943     -2335.3337    
EFLAG_ATOM: 0
        67   428.40465     -2011.0985      0             -1989.8896     -105.19839    
EFLAG_ATOM: 0
        68   473.55085     -2013.3394      0             -1989.8954     -3823.0638    
EFLAG_ATOM: 0
        69   461.76212     -2012.7977      0             -1989.9374     -2167.2178    
EFLAG_ATOM: 0
        70   442.29283     -2011.8218      0             -1989.9253     -2084.0352    
EFLAG_ATOM: 0
        71   447.67047     -2012.1215      0             -1989.9588     -8363.1057    
EFLAG_ATOM: 0
        72   464.14535     -2012.9379      0             -1989.9596     -5004.0225    
EFLAG_ATOM: 0
        73   482.78762     -2013.9253      0             -1990.0241      2771.6108    
EFLAG_ATOM: 0
        74   478.24461     -2013.7462      0             -1990.0699      3714.992     
EFLAG_ATOM: 0
        75   444.89583     -2012.1356      0             -1990.1103     -1591.1406    
EFLAG_ATOM: 0
        76   437.22043     -2011.7433      0             -1990.098      -4316.7467    
EFLAG_ATOM: 0
        77   438.40102     -2011.7527      0             -1990.0489     -3238.853     
EFLAG_ATOM: 0
        78   465.29006     -2013.1803      0             -1990.1454     -5409.5517    
EFLAG_ATOM: 0
        79   466.32643     -2013.2302      0             -1990.144      -5316.0327    
EFLAG_ATOM: 0
        80   459.75235     -2012.907       0             -1990.1462     -2335.158     
EFLAG_ATOM: 0
        81   454.04441     -2012.6025      0             -1990.1243      9.2656452    
EFLAG_ATOM: 0
        82   483.9033      -2014.0405      0             -1990.0841     -0.43006702   
EFLAG_ATOM: 0
        83   469.74586     -2013.3773      0             -1990.1218     -91.158872    
EFLAG_ATOM: 0
        84   479.00774     -2013.8647      0             -1990.1507     -7114.0742    
EFLAG_ATOM: 0
        85   451.64312     -2012.5007      0             -1990.1414     -7359.6987    
EFLAG_ATOM: 0
        86   468.24357     -2013.3096      0             -1990.1284      932.18875    
EFLAG_ATOM: 0
        87   462.58776     -2013.0466      0             -1990.1455      5826.6367    
EFLAG_ATOM: 0
        88   454.39573     -2012.7432      0             -1990.2476     -323.69481    
EFLAG_ATOM: 0
        89   461.28912     -2013.0618      0             -1990.2249     -4807.7571    
EFLAG_ATOM: 0
        90   462.46967     -2013.1392      0             -1990.2438     -5179.3659    
EFLAG_ATOM: 0
        91   463.17803     -2013.1232      0             -1990.1928     -436.60967    
EFLAG_ATOM: 0
        92   491.32299     -2014.6499      0             -1990.3262      2574.8625    
EFLAG_ATOM: 0
        93   462.96104     -2013.3579      0             -1990.4383      1301.0125    
EFLAG_ATOM: 0
        94   470.87934     -2013.8965      0             -1990.5848     -3516.46      
EFLAG_ATOM: 0
        95   461.91783     -2013.3901      0             -1990.5221     -4299.4204    
EFLAG_ATOM: 0
        96   475.0784      -2013.9545      0             -1990.4349     -1486.5121    
EFLAG_ATOM: 0
        97   465.10394     -2013.5282      0             -1990.5025      1974.6486    
EFLAG_ATOM: 0
        98   456.88972     -2013.1398      0             -1990.5207      646.95929    
EFLAG_ATOM: 0
        99   456.05869     -2013.1312      0             -1990.5533     -3202.0651    
EFLAG_ATOM: 0
       100   437.31735     -2012.2047      0             -1990.5546     -4664.5282    
EFLAG_ATOM: 0
       101   462.98295     -2013.6635      0             -1990.7427     -1300.3639    
EFLAG_ATOM: 0
       102   458.96079     -2013.4724      0             -1990.7508     -182.42435    
EFLAG_ATOM: 0
       103   463.26963     -2013.7803      0             -1990.8454     -1229.7116    
EFLAG_ATOM: 0
       104   484.43693     -2014.783       0             -1990.8001     -3332.4044    
EFLAG_ATOM: 0
       105   449.7093      -2013.0618      0             -1990.7982     -3733.6808    
EFLAG_ATOM: 0
       106   442.76023     -2012.7148      0             -1990.7953      529.62251    
EFLAG_ATOM: 0
       107   461.25513     -2013.6462      0             -1990.8111      3883.0584    
EFLAG_ATOM: 0
       108   452.00479     -2013.2594      0             -1990.8822      5907.4956    
EFLAG_ATOM: 0
       109   467.33078     -2014.1359      0             -1990.9999     -1985.9287    
EFLAG_ATOM: 0
       110   447.61906     -2013.1654      0             -1991.0053     -8134.9339    
EFLAG_ATOM: 0
       111   438.94247     -2012.7815      0             -1991.0509     -293.61912    
EFLAG_ATOM: 0
       112   453.70015     -2013.553       0             -1991.0918      4154.2449    
EFLAG_ATOM: 0
       113   458.75464     -2013.7769      0             -1991.0655     -4330.1735    
EFLAG_ATOM: 0
       114   450.36091     -2013.3549      0             -1991.059      -4178.202     
EFLAG_ATOM: 0
       115   437.8212      -2012.8695      0             -1991.1945      6132.8395    
EFLAG_ATOM: 0
       116   448.55942     -2013.4207      0             -1991.214       2964.9707    
EFLAG_ATOM: 0
       117   435.83059     -2012.8483      0             -1991.2718     -6016.0915    
EFLAG_ATOM: 0
       118   473.74611     -2014.7551      0             -1991.3016     -6470.3968    
EFLAG_ATOM: 0
       119   461.27664     -2014.1848      0             -1991.3486      4156.782     
EFLAG_ATOM: 0
       120   428.37381     -2012.6577      0             -1991.4504      3425.4021    
EFLAG_ATOM: 0
       121   436.23511     -2012.9983      0             -1991.4018     -6215.1276    
EFLAG_ATOM: 0
       122   460.3864      -2014.2013      0             -1991.4091     -6306.5813    
EFLAG_ATOM: 0
       123   478.62727     -2015.0822      0             -1991.3869      1171.796     
EFLAG_ATOM: 0
       124   449.47573     -2013.7045      0             -1991.4524      4588.0548    
EFLAG_ATOM: 0
       125   454.00676     -2013.9323      0             -1991.4559     -2478.9785    
EFLAG_ATOM: 0
       126   461.01684     -2014.2667      0             -1991.4433     -3020.6161    
EFLAG_ATOM: 0
       127   446.06217     -2013.592       0             -1991.509       3309.0839    
EFLAG_ATOM: 0
       128   449.501       -2013.7703      0             -1991.517       196.86413    
EFLAG_ATOM: 0
       129   451.25896     -2013.9858      0             -1991.6455     -2077.7154    
EFLAG_ATOM: 0
       130   441.01043     -2013.4095      0             -1991.5766     -3098.9991    
EFLAG_ATOM: 0
       131   448.80498     -2013.7961      0             -1991.5773     -4082.2727    
EFLAG_ATOM: 0
       132   447.05329     -2013.7416      0             -1991.6095      2795.0273    
EFLAG_ATOM: 0
       133   446.24526     -2013.6676      0             -1991.5755      1902.1217    
EFLAG_ATOM: 0
       134   464.65448     -2014.6046      0             -1991.6011      432.69806    
EFLAG_ATOM: 0
       135   476.6664      -2015.1398      0             -1991.5416     -2148.1927    
EFLAG_ATOM: 0
       136   410.40377     -2011.8848      0             -1991.5671     -1811.4403    
EFLAG_ATOM: 0
       137   416.16562     -2012.2805      0             -1991.6776     -3608.7202    
EFLAG_ATOM: 0
       138   471.50058     -2015.0029      0             -1991.6605     -1850.5718    
EFLAG_ATOM: 0
       139   448.12434     -2013.9285      0             -1991.7433      6003.7433    
EFLAG_ATOM: 0
       140   458.05224     -2014.4037      0             -1991.7271      3955.3018    
EFLAG_ATOM: 0
       141   448.86286     -2013.9642      0             -1991.7425     -2050.5415    
EFLAG_ATOM: 0
       142   451.09867     -2014.0708      0             -1991.7384     -3717.3946    
EFLAG_ATOM: 0
       143   448.58451     -2013.8884      0             -1991.6805      44.705274    
EFLAG_ATOM: 0
       144   460.74684     -2014.514       0             -1991.704      -2798.0949    
EFLAG_ATOM: 0
       145   481.36497     -2015.554       0             -1991.7232     -2948.2228    
EFLAG_ATOM: 0
       146   474.71098     -2015.2721      0             -1991.7708      4147.947     
EFLAG_ATOM: 0
       147   476.26063     -2015.39        0             -1991.812       9193.6233    
EFLAG_ATOM: 0
       148   464.22543     -2014.803       0             -1991.8207      26.929486    
EFLAG_ATOM: 0
       149   439.03229     -2013.5786      0             -1991.8436     -4940.0197    
EFLAG_ATOM: 0
       150   423.7211      -2012.8479      0             -1991.8709      1367.2048    
EFLAG_ATOM: 0
       151   476.86093     -2015.5217      0             -1991.9139      2700.3686    
EFLAG_ATOM: 0
       152   463.81985     -2014.8881      0             -1991.9259      2102.4767    
EFLAG_ATOM: 0
       153   459.47402     -2014.5637      0             -1991.8167      242.40635    
EFLAG_ATOM: 0
       154   437.19983     -2013.397       0             -1991.7527     -961.27755    
EFLAG_ATOM: 0
       155   473.19024     -2015.2019      0             -1991.7758     -1032.8245    
EFLAG_ATOM: 0
       156   491.12862     -2016.1962      0             -1991.882      -2527.7923    
EFLAG_ATOM: 0
       157   446.39645     -2013.9438      0             -1991.8443      1707.8096    
EFLAG_ATOM: 0
       158   440.36621     -2013.6392      0             -1991.8381      2132.8444    
EFLAG_ATOM: 0
       159   459.9764      -2014.6743      0             -1991.9024     -354.90147    
EFLAG_ATOM: 0
       160   467.21615     -2015.0387      0             -1991.9084     -3783.941     
EFLAG_ATOM: 0
       161   469.22551     -2015.1344      0             -1991.9046     -1398.835     
EFLAG_ATOM: 0
       162   471.91293     -2015.3339      0             -1991.971      -1995.3341    
EFLAG_ATOM: 0
       163   458.9737      -2014.7427      0             -1992.0204     -5713.2848    
EFLAG_ATOM: 0
       164   444.092       -2014.0693      0             -1992.0838     -2567.1438    
EFLAG_ATOM: 0
       165   434.82102     -2013.6373      0             -1992.1108      3889.6861    
EFLAG_ATOM: 0
       166   459.62185     -2014.8656      0             -1992.1113      261.72969    
EFLAG_ATOM: 0
       167   458.61895     -2014.7557      0             -1992.0511     -6196.2467    
EFLAG_ATOM: 0
       168   433.43495     -2013.5514      0             -1992.0935     -3079.6424    
EFLAG_ATOM: 0
       169   438.41361     -2013.7852      0             -1992.0808     -0.45679997   
EFLAG_ATOM: 0
       170   432.03286     -2013.3984      0             -1992.0099     -2729.301     
EFLAG_ATOM: 0
       171   448.87726     -2014.2546      0             -1992.0322     -4110.7062    
EFLAG_ATOM: 0
       172   445.97369     -2014.1527      0             -1992.0741      2046.8934    
EFLAG_ATOM: 0
       173   457.61163     -2014.824       0             -1992.1692      4152.1627    
EFLAG_ATOM: 0
       174   458.69451     -2014.8787      0             -1992.1702     -2782.3694    
EFLAG_ATOM: 0
       175   431.37037     -2013.5148      0             -1992.1591     -6881.3589    
EFLAG_ATOM: 0
       176   443.92456     -2014.152       0             -1992.1748     -5466.9594    
EFLAG_ATOM: 0
       177   439.69977     -2013.8955      0             -1992.1275      235.91309    
EFLAG_ATOM: 0
       178   446.33848     -2014.2482      0             -1992.1515      1799.4731    
EFLAG_ATOM: 0
       179   432.50268     -2013.5645      0             -1992.1527     -408.75715    
EFLAG_ATOM: 0
       180   441.10316     -2013.9091      0             -1992.0715     -3356.1832    
EFLAG_ATOM: 0
       181   460.79358     -2014.9117      0             -1992.0994     -2185.5154    
EFLAG_ATOM: 0
       182   476.79196     -2015.6521      0             -1992.0477     -2726.4975    
EFLAG_ATOM: 0
       183   464.39201     -2015.0193      0             -1992.0288     -1549.2317    
EFLAG_ATOM: 0
       184   435.19875     -2013.5892      0             -1992.044       1571.0153    
EFLAG_ATOM: 0
       185   463.31026     -2015.0594      0             -1992.1225      413.46413    
EFLAG_ATOM: 0
       186   461.83752     -2014.9316      0             -1992.0676     -1285.3283    
EFLAG_ATOM: 0
       187   417.78296     -2012.7454      0             -1992.0623     -1447.7455    
EFLAG_ATOM: 0
       188   434.13086     -2013.593       0             -1992.1007     -602.55458    
EFLAG_ATOM: 0
       189   461.00617     -2015.0353      0             -1992.2124     -2871.5841    
EFLAG_ATOM: 0
       190   471.768       -2015.5925      0             -1992.2369     -4485.3256    
EFLAG_ATOM: 0
       191   432.58554     -2013.7117      0             -1992.2958     -725.94679    
EFLAG_ATOM: 0
       192   450.99253     -2014.7653      0             -1992.4381      935.55291    
EFLAG_ATOM: 0
       193   482.95476     -2016.3151      0             -1992.4056      601.37833    
EFLAG_ATOM: 0
       194   455.06492     -2014.8818      0             -1992.3531     -1560.3973    
EFLAG_ATOM: 0
       195   451.06673     -2014.6653      0             -1992.3345     -3636.3515    
EFLAG_ATOM: 0
       196   450.97894     -2014.6986      0             -1992.3722     -801.65977    
EFLAG_ATOM: 0
       197   465.33814     -2015.3864      0             -1992.349       1942.3613    
EFLAG_ATOM: 0
       198   461.92937     -2015.173       0             -1992.3044      2616.2598    
EFLAG_ATOM: 0
       199   460.13034     -2015.094       0             -1992.3145     -2004.0547    
EFLAG_ATOM: 0
       200   438.46142     -2013.9658      0             -1992.2591     -511.56317    
EFLAG_ATOM: 0
       201   484.50386     -2016.3373      0             -1992.3511     -1833.1779    
EFLAG_ATOM: 0
       202   467.68739     -2015.4608      0             -1992.3072     -1528.3226    
EFLAG_ATOM: 0
       203   442.53581     -2014.1729      0             -1992.2644      3655.2881    
EFLAG_ATOM: 0
       204   449.69391     -2014.5151      0             -1992.2523      4316.9135    
EFLAG_ATOM: 0
       205   451.73288     -2014.5695      0             -1992.2057     -2474.2349    
EFLAG_ATOM: 0
       206   445.05546     -2014.3008      0             -1992.2676     -4883.2108    
EFLAG_ATOM: 0
       207   444.33706     -2014.2782      0             -1992.2806     -3259.39      
EFLAG_ATOM: 0
       208   443.23025     -2014.2122      0             -1992.2693      3524.2947    
EFLAG_ATOM: 0
       209   444.18392     -2014.2649      0             -1992.2748      4211.8424    
EFLAG_ATOM: 0
       210   456.59309     -2014.9083      0             -1992.3039     -1720.8634    
EFLAG_ATOM: 0
       211   423.79446     -2013.3766      0             -1992.3959     -4583.5588    
EFLAG_ATOM: 0
       212   422.80417     -2013.353       0             -1992.4214     -5892.8153    
EFLAG_ATOM: 0
       213   454.57305     -2014.9369      0             -1992.4325     -3174.7152    
EFLAG_ATOM: 0
       214   457.5266      -2015.1166      0             -1992.466      -1687.2429    
EFLAG_ATOM: 0
       215   430.61772     -2013.8208      0             -1992.5024     -2221.1826    
EFLAG_ATOM: 0
       216   435.18005     -2014.0491      0             -1992.5048     -4078.5212    
EFLAG_ATOM: 0
       217   431.62912     -2013.8693      0             -1992.5008     -3893.889     
EFLAG_ATOM: 0
       218   438.08174     -2014.2383      0             -1992.5503     -1861.7425    
EFLAG_ATOM: 0
       219   449.00632     -2014.8669      0             -1992.6382     -1153.2896    
EFLAG_ATOM: 0
       220   433.31081     -2014.0789      0             -1992.6271     -1056.5422    
EFLAG_ATOM: 0
       221   425.618       -2013.6279      0             -1992.557      -3546.3952    
EFLAG_ATOM: 0
       222   428.49638     -2013.811       0             -1992.5976     -4261.595     
EFLAG_ATOM: 0
       223   443.86543     -2014.6508      0             -1992.6765     -960.28207    
EFLAG_ATOM: 0
       224   451.18639     -2015.1022      0             -1992.7655     -278.66326    
EFLAG_ATOM: 0
       225   452.73613     -2015.276       0             -1992.8626     -3395.9055    
EFLAG_ATOM: 0
       226   420.9991      -2013.7162      0             -1992.8739     -3986.9362    
EFLAG_ATOM: 0
       227   435.00567     -2014.3912      0             -1992.8556     -4548.3957    
EFLAG_ATOM: 0
       228   431.55611     -2014.2073      0             -1992.8424     -2693.9717    
EFLAG_ATOM: 0
       229   444.17864     -2014.9011      0             -1992.9113     -669.52072    
EFLAG_ATOM: 0
       230   440.1667      -2014.7314      0             -1992.9403     -1992.9746    
EFLAG_ATOM: 0
       231   432.18982     -2014.3098      0             -1992.9136     -2502.2834    
EFLAG_ATOM: 0
       232   413.12047     -2013.3785      0             -1992.9263      219.73191    
EFLAG_ATOM: 0
       233   432.22678     -2014.3687      0             -1992.9706     -289.4511     
EFLAG_ATOM: 0
       234   440.29721     -2014.8486      0             -1993.051      -2232.6537    
EFLAG_ATOM: 0
       235   411.51435     -2013.4167      0             -1993.0441     -3901.6752    
EFLAG_ATOM: 0
       236   421.95733     -2013.9213      0             -1993.0316     -569.83973    
EFLAG_ATOM: 0
       237   426.19637     -2014.1825      0             -1993.0829      1311.4032    
EFLAG_ATOM: 0
       238   428.25006     -2014.3252      0             -1993.124      -272.65238    
EFLAG_ATOM: 0
       239   429.54521     -2014.4576      0             -1993.1923      1404.3049    
EFLAG_ATOM: 0
       240   418.12121     -2013.9464      0             -1993.2466      3658.2037    
EFLAG_ATOM: 0
       241   428.93452     -2014.5361      0             -1993.301       490.70105    
EFLAG_ATOM: 0
       242   426.17343     -2014.3881      0             -1993.2896     -3128.002     
EFLAG_ATOM: 0
       243   440.88532     -2015.1394      0             -1993.3127     -1528.0653    
EFLAG_ATOM: 0
       244   447.44584     -2015.5194      0             -1993.3679     -401.13128    
EFLAG_ATOM: 0
       245   432.48079     -2014.7875      0             -1993.3768     -2598.8859    
EFLAG_ATOM: 0
       246   427.95529     -2014.4869      0             -1993.3003     -6490.8668    
EFLAG_ATOM: 0
       247   415.24812     -2013.8629      0             -1993.3054     -750.79145    
EFLAG_ATOM: 0
       248   420.30042     -2014.1609      0             -1993.3532      5638.0423    
EFLAG_ATOM: 0
       249   435.5667      -2015.0094      0             -1993.446       168.13078    
EFLAG_ATOM: 0
       250   415.09045     -2013.9824      0             -1993.4327     -5625.2521    
EFLAG_ATOM: 0
       251   425.90595     -2014.5636      0             -1993.4784     -3204.7128    
EFLAG_ATOM: 0
       252   433.14243     -2014.9329      0             -1993.4894      2570.523     
EFLAG_ATOM: 0
       253   436.61581     -2015.1501      0             -1993.5348      3680.0101    
EFLAG_ATOM: 0
       254   426.75626     -2014.6965      0             -1993.5693      875.20574    
EFLAG_ATOM: 0
       255   436.05025     -2015.1702      0             -1993.5828     -3724.3572    
EFLAG_ATOM: 0
       256   427.61233     -2014.7297      0             -1993.5601     -1374.7522    
EFLAG_ATOM: 0
       257   433.11591     -2014.9987      0             -1993.5565      159.75975    
EFLAG_ATOM: 0
       258   449.48147     -2015.8505      0             -1993.5981      2254.3082    
EFLAG_ATOM: 0
       259   440.57866     -2015.4607      0             -1993.6491      3433.2668    
EFLAG_ATOM: 0
       260   408.378       -2013.8915      0             -1993.6741      634.68082    
EFLAG_ATOM: 0
       261   428.54056     -2014.8578      0             -1993.6422     -4055.5053    
EFLAG_ATOM: 0
       262   419.84061     -2014.3967      0             -1993.6118     -951.1918     
EFLAG_ATOM: 0
       263   419.94037     -2014.4303      0             -1993.6405      3900.7435    
EFLAG_ATOM: 0
       264   444.1272      -2015.5675      0             -1993.5803      625.8658     
EFLAG_ATOM: 0
       265   437.44709     -2015.2924      0             -1993.6358     -3618.8549    
EFLAG_ATOM: 0
       266   411.23235     -2014.0121      0             -1993.6534     -3467.0357    
EFLAG_ATOM: 0
       267   402.90948     -2013.6573      0             -1993.7107      2228.8349    
EFLAG_ATOM: 0
       268   413.71242     -2014.1987      0             -1993.7172      2918.8489    
EFLAG_ATOM: 0
       269   423.80001     -2014.6803      0             -1993.6994     -3322.6854    
EFLAG_ATOM: 0
       270   424.85203     -2014.7288      0             -1993.6958     -7093.9079    
EFLAG_ATOM: 0
       271   439.15997     -2015.449       0             -1993.7076     -4132.8553    
EFLAG_ATOM: 0
       272   437.38712     -2015.3214      0             -1993.6678      1152.4684    
EFLAG_ATOM: 0
       273   426.56813     -2014.8688      0             -1993.7508      1425.3288    
EFLAG_ATOM: 0
       274   417.11074     -2014.4362      0             -1993.7864     -2126.4007    
EFLAG_ATOM: 0
       275   424.1064      -2014.7866      0             -1993.7905     -4664.4522    
EFLAG_ATOM: 0
       276   426.64016     -2014.9027      0             -1993.7812     -2442.0048    
EFLAG_ATOM: 0
       277   427.08682     -2014.965       0             -1993.8213     -1595.6268    
EFLAG_ATOM: 0
       278   431.77164     -2015.1195      0             -1993.7439     -1800.4618    
EFLAG_ATOM: 0
       279   419.85262     -2014.515       0             -1993.7295     -2781.244     
EFLAG_ATOM: 0
       280   425.25177     -2014.7716      0             -1993.7188     -5244.7662    
EFLAG_ATOM: 0
       281   429.05691     -2014.9176      0             -1993.6764     -743.65464    
EFLAG_ATOM: 0
       282   416.27529     -2014.3418      0             -1993.7334      374.88385    
EFLAG_ATOM: 0
       283   424.63816     -2014.7495      0             -1993.7271     -386.4035     
EFLAG_ATOM: 0
       284   428.51922     -2014.912       0             -1993.6974     -342.42891    
EFLAG_ATOM: 0
       285   418.12254     -2014.4386      0             -1993.7388      1403.8539    
EFLAG_ATOM: 0
       286   426.42724     -2014.9183      0             -1993.8074     -898.75525    
EFLAG_ATOM: 0
       287   436.5477      -2015.5021      0             -1993.8901     -5525.4631    
EFLAG_ATOM: 0
       288   424.24224     -2014.8503      0             -1993.8475     -3568.985     
EFLAG_ATOM: 0
       289   429.57181     -2015.0632      0             -1993.7966     -1473.2645    
EFLAG_ATOM: 0
       290   437.37279     -2015.4614      0             -1993.8086      122.02639    
EFLAG_ATOM: 0
       291   414.43923     -2014.3135      0             -1993.796      -2069.5693    
EFLAG_ATOM: 0
       292   414.72083     -2014.3511      0             -1993.8196     -4158.6584    
EFLAG_ATOM: 0
       293   438.98113     -2015.6372      0             -1993.9047     -2832.396     
EFLAG_ATOM: 0
       294   417.0626      -2014.6249      0             -1993.9775      2099.9461    
EFLAG_ATOM: 0
       295   416.62259     -2014.6309      0             -1994.0053      1879.9264    
EFLAG_ATOM: 0
       296   420.91324     -2014.8335      0             -1993.9955     -5697.957     
EFLAG_ATOM: 0
       297   401.98517     -2013.8954      0             -1993.9945     -7808.9132    
EFLAG_ATOM: 0
       298   438.18347     -2015.7246      0             -1994.0316     -4249.2415    
EFLAG_ATOM: 0
       299   443.24386     -2016.031       0             -1994.0875      3140.4428    
EFLAG_ATOM: 0
       300   410.5449      -2014.4242      0             -1994.0995      3016.6879    
EFLAG_ATOM: 0
       301   419.23472     -2014.8831      0             -1994.1282     -2561.4658    
EFLAG_ATOM: 0
       302   422.83266     -2015.0464      0             -1994.1134     -5354.4875    
EFLAG_ATOM: 0
       303   427.3356      -2015.3286      0             -1994.1727     -2718.8096    
EFLAG_ATOM: 0
       304   445.70332     -2016.188       0             -1994.1227     -1630.3634    
EFLAG_ATOM: 0
       305   433.73826     -2015.7051      0             -1994.2322     -249.26865    
EFLAG_ATOM: 0
       306   431.20835     -2015.6125      0             -1994.2649     -2677.7775    
EFLAG_ATOM: 0
       307   411.20667     -2014.5536      0             -1994.1961     -1358.3135    
EFLAG_ATOM: 0
       308   428.57557     -2015.4325      0             -1994.2152      206.80114    
EFLAG_ATOM: 0
       309   427.49459     -2015.4255      0             -1994.2617     -1429.9243    
EFLAG_ATOM: 0
       310   411.22248     -2014.6573      0             -1994.2991     -2473.2651    
EFLAG_ATOM: 0
       311   440.02507     -2016.1407      0             -1994.3566     -1351.5069    
EFLAG_ATOM: 0
       312   423.42125     -2015.3547      0             -1994.3926      2676.7401    
EFLAG_ATOM: 0
       313   392.18164     -2013.9031      0             -1994.4875     -362.10923    
EFLAG_ATOM: 0
       314   434.15339     -2016.0095      0             -1994.516      -4341.832     
EFLAG_ATOM: 0
       315   452.17631     -2016.9487      0             -1994.563      -3015.5081    
EFLAG_ATOM: 0
       316   418.94968     -2015.3673      0             -1994.6265      2297.1834    
EFLAG_ATOM: 0
       317   429.94508     -2015.947       0             -1994.6619     -154.0051     
EFLAG_ATOM: 0
       318   431.70072     -2016.0704      0             -1994.6984     -4767.2676    
EFLAG_ATOM: 0
       319   407.92159     -2014.9567      0             -1994.7618     -6483.3412    
EFLAG_ATOM: 0
       320   409.79397     -2015.0347      0             -1994.7471     -2058.4875    
EFLAG_ATOM: 0
       321   408.20223     -2014.9874      0             -1994.7787      4254.7981    
EFLAG_ATOM: 0
       322   432.72981     -2016.2493      0             -1994.8263      900.07686    
EFLAG_ATOM: 0
       323   415.63682     -2015.3905      0             -1994.8137     -4956.867     
EFLAG_ATOM: 0
       324   407.4732      -2014.9395      0             -1994.7668     -5872.9415    
EFLAG_ATOM: 0
       325   398.10803     -2014.5111      0             -1994.8021     -1510.9826    
EFLAG_ATOM: 0
       326   418.55035     -2015.4811      0             -1994.7601     -585.09508    
EFLAG_ATOM: 0
       327   421.57309     -2015.6406      0             -1994.77       -3204.739     
EFLAG_ATOM: 0
       328   428.22912     -2015.9613      0             -1994.7611     -3759.6805    
EFLAG_ATOM: 0
       329   398.49407     -2014.4915      0             -1994.7634     -1458.8836    
EFLAG_ATOM: 0
       330   409.59913     -2015.0367      0             -1994.7589     -477.8823     
EFLAG_ATOM: 0
       331   439.75228     -2016.4961      0             -1994.7254     -2277.7095    
EFLAG_ATOM: 0
       332   429.83476     -2015.9703      0             -1994.6907     -2636.0309    
EFLAG_ATOM: 0
       333   423.60093     -2015.6509      0             -1994.6798     -3013.7107    
EFLAG_ATOM: 0
       334   425.9171      -2015.7882      0             -1994.7025     -3468.3187    
EFLAG_ATOM: 0
       335   401.49042     -2014.6666      0             -1994.7902     -1188.7622    
EFLAG_ATOM: 0
       336   426.96481     -2015.8423      0             -1994.7047     -1370.6997    
EFLAG_ATOM: 0
       337   437.28187     -2016.4015      0             -1994.7531     -13.177602    
EFLAG_ATOM: 0
       338   421.13233     -2015.6998      0             -1994.851       20.18412     
EFLAG_ATOM: 0
       339   423.15005     -2015.734       0             -1994.7853     -3421.2214    
EFLAG_ATOM: 0
       340   428.49739     -2016.0483      0             -1994.8349     -4338.4332    
EFLAG_ATOM: 0
       341   408.00263     -2015.1212      0             -1994.9224     -2146.2084    
EFLAG_ATOM: 0
       342   431.00479     -2016.151       0             -1994.8134     -2244.4181    
EFLAG_ATOM: 0
       343   427.74937     -2015.9819      0             -1994.8055      3521.173     
EFLAG_ATOM: 0
       344   445.35147     -2016.7833      0             -1994.7355      2266.2341    
EFLAG_ATOM: 0
       345   420.7672      -2015.6212      0             -1994.7904     -3343.4098    
EFLAG_ATOM: 0
       346   394.36681     -2014.349       0             -1994.8252     -6188.0994    
EFLAG_ATOM: 0
       347   424.97763     -2015.8022      0             -1994.763      -4628.0551    
EFLAG_ATOM: 0
       348   426.52014     -2015.9264      0             -1994.8108      2231.2114    
EFLAG_ATOM: 0
       349   417.87419     -2015.5433      0             -1994.8558      4309.0741    
EFLAG_ATOM: 0
       350   411.69927     -2015.2396      0             -1994.8578     -3062.9701    
EFLAG_ATOM: 0
       351   392.24795     -2014.2911      0             -1994.8723     -7041.4728    
EFLAG_ATOM: 0
       352   404.06911     -2014.8429      0             -1994.8388     -4034.6376    
EFLAG_ATOM: 0
       353   416.49107     -2015.4164      0             -1994.7973      2009.992     
EFLAG_ATOM: 0
       354   427.23637     -2015.9628      0             -1994.8117      3929.5268    
EFLAG_ATOM: 0
       355   428.01619     -2016.024       0             -1994.8344     -2573.3406    
EFLAG_ATOM: 0
       356   400.80545     -2014.7189      0             -1994.8763     -8489.9738    
EFLAG_ATOM: 0
       357   414.00227     -2015.3081      0             -1994.8122     -5950.8016    
EFLAG_ATOM: 0
       358   409.9391      -2015.0684      0             -1994.7737      1404.2506    
EFLAG_ATOM: 0
       359   452.62529     -2017.2468      0             -1994.8389      770.70899    
EFLAG_ATOM: 0
       360   435.17442     -2016.3973      0             -1994.8533     -6017.7293    
EFLAG_ATOM: 0
       361   417.96681     -2015.5894      0             -1994.8972     -7354.6021    
EFLAG_ATOM: 0
       362   398.16012     -2014.5298      0             -1994.8182     -4430.449     
EFLAG_ATOM: 0
       363   410.56361     -2015.0857      0             -1994.7601     -3900.3917    
EFLAG_ATOM: 0
       364   415.85893     -2015.3773      0             -1994.7895     -44.413111    
EFLAG_ATOM: 0
       365   431.17232     -2016.1226      0             -1994.7767      1946.4963    
EFLAG_ATOM: 0
       366   403.46322     -2014.7461      0             -1994.772      -1614.1055    
EFLAG_ATOM: 0
       367   398.73966     -2014.5488      0             -1994.8086     -9075.2767    
EFLAG_ATOM: 0
       368   418.69575     -2015.5438      0             -1994.8156     -11295.423    
EFLAG_ATOM: 0
       369   399.6628      -2014.6123      0             -1994.8263     -5567.8277    
EFLAG_ATOM: 0
       370   416.93458     -2015.4658      0             -1994.8248     -5183.3017    
EFLAG_ATOM: 0
       371   387.18613     -2014.0208      0             -1994.8525     -4192.1593    
EFLAG_ATOM: 0
       372   385.22746     -2013.9471      0             -1994.8758      2815.0036    
EFLAG_ATOM: 0
       373   397.66695     -2014.4652      0             -1994.7781      3933.8824    
EFLAG_ATOM: 0
       374   396.67394     -2014.3799      0             -1994.7419     -1898.1173    
EFLAG_ATOM: 0
       375   409.41621     -2015.0444      0             -1994.7756     -1595.2793    
EFLAG_ATOM: 0
       376   396.48551     -2014.5195      0             -1994.8909     -192.67618    
EFLAG_ATOM: 0
       377   405.59007     -2015.001       0             -1994.9216     -4326.989     
EFLAG_ATOM: 0
       378   386.61184     -2014.1211      0             -1994.9812     -7100.4349    
EFLAG_ATOM: 0
       379   405.18382     -2015.0498      0             -1994.9905     -5900.5341    
EFLAG_ATOM: 0
       380   409.76646     -2015.3153      0             -1995.0291     -1947.0233    
EFLAG_ATOM: 0
       381   421.81908     -2015.9087      0             -1995.0258      253.0362     
EFLAG_ATOM: 0
       382   404.47916     -2015.0269      0             -1995.0025      140.90722    
EFLAG_ATOM: 0
       383   411.83461     -2015.3701      0             -1994.9816     -1939.7243    
EFLAG_ATOM: 0
       384   435.66064     -2016.5314      0             -1994.9633     -3784.1892    
EFLAG_ATOM: 0
       385   420.19776     -2015.8206      0             -1995.018      -1833.117     
EFLAG_ATOM: 0
       386   387.27616     -2014.2668      0             -1995.0941      391.56964    
EFLAG_ATOM: 0
       387   421.24037     -2016.025       0             -1995.1708     -2280.0026    
EFLAG_ATOM: 0
       388   413.19846     -2015.6555      0             -1995.1995     -1532.7232    
EFLAG_ATOM: 0
       389   415.2382      -2015.7684      0             -1995.2114     -420.5324     
EFLAG_ATOM: 0
       390   436.77203     -2016.881       0             -1995.2579     -2260.3317    
EFLAG_ATOM: 0
       391   412.24519     -2015.6683      0             -1995.2595     -4589.2483    
EFLAG_ATOM: 0
       392   394.99899     -2014.8777      0             -1995.3226     -4275.5849    
EFLAG_ATOM: 0
       393   406.60598     -2015.4863      0             -1995.3566     -1320.7441    
EFLAG_ATOM: 0
       394   443.2822      -2017.2875      0             -1995.3421      2826.6241    
EFLAG_ATOM: 0
       395   416.35043     -2015.8893      0             -1995.2772      7033.1121    
EFLAG_ATOM: 0
       396   404.23415     -2015.4276      0             -1995.4153      6455.1047    
EFLAG_ATOM: 0
       397   429.85505     -2016.7849      0             -1995.5042     -3401.7708    
EFLAG_ATOM: 0
       398   409.71979     -2015.8242      0             -1995.5404     -5261.5794    
EFLAG_ATOM: 0
       399   414.21195     -2016.0076      0             -1995.5013     -1149.6947    
EFLAG_ATOM: 0
       400   390.70485     -2014.8269      0             -1995.4844      3529.6084    
EFLAG_ATOM: 0
       401   394.81364     -2015.0092      0             -1995.4633      4720.3807    
EFLAG_ATOM: 0
       402   421.50896     -2016.3623      0             -1995.4948      118.04376    
EFLAG_ATOM: 0
       403   417.35679     -2016.2551      0             -1995.5932     -2742.409     
EFLAG_ATOM: 0
       404   404.73417     -2015.6426      0             -1995.6056     -1998.9836    
EFLAG_ATOM: 0
       405   389.77491     -2014.9509      0             -1995.6545     -1067.2476    
EFLAG_ATOM: 0
       406   411.83696     -2016.0703      0             -1995.6817      326.1418     
EFLAG_ATOM: 0
       407   420.22181     -2016.4852      0             -1995.6815      2250.6674    
EFLAG_ATOM: 0
       408   409.86849     -2015.9849      0             -1995.6937      1634.7891    
EFLAG_ATOM: 0
       409   413.47673     -2016.1188      0             -1995.6489     -2657.629     
EFLAG_ATOM: 0
       410   423.28686     -2016.6311      0             -1995.6756     -4265.0384    
EFLAG_ATOM: 0
       411   406.82679     -2015.8059      0             -1995.6653      555.06478    
EFLAG_ATOM: 0
       412   407.8215      -2015.8605      0             -1995.6706     -114.88069    
EFLAG_ATOM: 0
       413   418.73616     -2016.4106      0             -1995.6804     -4774.0452    
EFLAG_ATOM: 0
       414   398.92505     -2015.4298      0             -1995.6804     -2834.8777    
EFLAG_ATOM: 0
       415   395.61901     -2015.261       0             -1995.6752      1083.6936    
EFLAG_ATOM: 0
       416   392.19333     -2015.0984      0             -1995.6822      3161.8811    
EFLAG_ATOM: 0
       417   427.84125     -2016.9061      0             -1995.7251     -1364.1104    
EFLAG_ATOM: 0
       418   411.26253     -2016.0841      0             -1995.7239     -4533.128     
EFLAG_ATOM: 0
       419   403.565       -2015.7032      0             -1995.7241     -5896.4822    
EFLAG_ATOM: 0
       420   392.48328     -2015.2072      0             -1995.7766     -5247.15      
EFLAG_ATOM: 0
       421   402.85107     -2015.7554      0             -1995.8116     -4260.7127    
EFLAG_ATOM: 0
       422   407.37621     -2015.9449      0             -1995.7771     -4925.3801    
EFLAG_ATOM: 0
       423   407.62742     -2015.9419      0             -1995.7616     -3470.161     
EFLAG_ATOM: 0
       424   410.10165     -2016.0072      0             -1995.7044      1146.6996    
EFLAG_ATOM: 0
       425   409.62907     -2015.9667      0             -1995.6873      3166.03      
EFLAG_ATOM: 0
       426   418.02864     -2016.333       0             -1995.6378     -3125.8472    
EFLAG_ATOM: 0
       427   388.98131     -2014.9607      0             -1995.7035     -8546.7497    
EFLAG_ATOM: 0
       428   404.73777     -2015.6669      0             -1995.6297     -8809.831     
EFLAG_ATOM: 0
       429   411.83455     -2016.0551      0             -1995.6665     -2834.4023    
EFLAG_ATOM: 0
       430   404.83738     -2015.7343      0             -1995.6921      1070.3024    
EFLAG_ATOM: 0
       431   386.5998      -2014.8065      0             -1995.6673     -1728.0383    
EFLAG_ATOM: 0
       432   391.26567     -2015.0264      0             -1995.6561     -4671.4424    
EFLAG_ATOM: 0
       433   415.24843     -2016.2797      0             -1995.7221     -2683.0927    
EFLAG_ATOM: 0
       434   407.05356     -2015.8596      0             -1995.7078     -469.54017    
EFLAG_ATOM: 0
       435   401.66336     -2015.578       0             -1995.693      -2532.2328    
EFLAG_ATOM: 0
       436   382.77035     -2014.6899      0             -1995.7403     -3140.6309    
EFLAG_ATOM: 0
       437   406.61932     -2015.8665      0             -1995.7361     -2786.8829    
EFLAG_ATOM: 0
       438   402.50799     -2015.684       0             -1995.7571     -295.4293     
EFLAG_ATOM: 0
       439   409.09914     -2016.01        0             -1995.7569     -969.43152    
EFLAG_ATOM: 0
       440   381.59814     -2014.587       0             -1995.6954     -1563.6916    
EFLAG_ATOM: 0
       441   381.00753     -2014.5819      0             -1995.7195     -2468.029     
EFLAG_ATOM: 0
       442   411.43946     -2016.1123      0             -1995.7433     -2627.8798    
EFLAG_ATOM: 0
       443   404.44536     -2015.8191      0             -1995.7964     -1168.0912    
EFLAG_ATOM: 0
       444   409.45552     -2016.0533      0             -1995.7826     -3180.9266    
EFLAG_ATOM: 0
       445   403.60464     -2015.7535      0             -1995.7724     -5877.5853    
EFLAG_ATOM: 0
       446   424.59402     -2016.8157      0             -1995.7955     -3147.7601    
EFLAG_ATOM: 0
       447   414.62799     -2016.3218      0             -1995.7949     -21.664252    
EFLAG_ATOM: 0
       448   426.64991     -2016.9414      0             -1995.8194     -2736.1438    
EFLAG_ATOM: 0
       449   427.08679     -2016.975       0             -1995.8313     -3412.2444    
EFLAG_ATOM: 0
       450   428.14997     -2017.0245      0             -1995.8283     -477.24264    
EFLAG_ATOM: 0
       451   417.92019     -2016.4938      0             -1995.804      -2743.5628    
EFLAG_ATOM: 0
       452   406.56912     -2015.9255      0             -1995.7977     -6331.9865    
EFLAG_ATOM: 0
       453   412.04872     -2016.2064      0             -1995.8073     -6392.7293    
EFLAG_ATOM: 0
       454   398.99743     -2015.5685      0             -1995.8155     -1262.3888    
EFLAG_ATOM: 0
       455   417.50779     -2016.4967      0             -1995.8273     -945.65054    
EFLAG_ATOM: 0
       456   411.07919     -2016.1699      0             -1995.8188     -269.04538    
EFLAG_ATOM: 0
       457   403.42708     -2015.8732      0             -1995.9009     -182.21922    
EFLAG_ATOM: 0
       458   402.02046     -2015.7847      0             -1995.882      -745.84787    
EFLAG_ATOM: 0
       459   400.43645     -2015.6985      0             -1995.8742     -1978.327     
EFLAG_ATOM: 0
       460   410.31707     -2016.2189      0             -1995.9055     -1553.3607    
EFLAG_ATOM: 0
       461   383.80502     -2014.8688      0             -1995.8679     -828.37633    
EFLAG_ATOM: 0
       462   410.06335     -2016.2214      0             -1995.9206     -3315.5396    
EFLAG_ATOM: 0
       463   412.32956     -2016.2699      0             -1995.8568     -5691.4611    
EFLAG_ATOM: 0
       464   396.95729     -2015.5631      0             -1995.9111     -1552.0309    
EFLAG_ATOM: 0
       465   393.95583     -2015.4364      0             -1995.933       4008.3142    
EFLAG_ATOM: 0
       466   404.33345     -2015.9802      0             -1995.963       2934.0504    
EFLAG_ATOM: 0
       467   399.30671     -2015.7994      0             -1996.0311     -2209.2122    
EFLAG_ATOM: 0
       468   411.68865     -2016.3315      0             -1995.9502     -5226.2842    
EFLAG_ATOM: 0
       469   398.1487      -2015.7565      0             -1996.0455     -2284.9659    
EFLAG_ATOM: 0
       470   388.5257      -2015.3134      0             -1996.0788      2570.6696    
EFLAG_ATOM: 0
       471   417.96561     -2016.7749      0             -1996.0828      1995.6372    
EFLAG_ATOM: 0
       472   403.14452     -2016.0563      0             -1996.0979      751.85814    
EFLAG_ATOM: 0
       473   409.00174     -2016.3457      0             -1996.0974     -4609.4973    
EFLAG_ATOM: 0
       474   411.2782      -2016.4532      0             -1996.0922     -5732.7152    
EFLAG_ATOM: 0
       475   398.49342     -2015.7646      0             -1996.0366      1458.2561    
EFLAG_ATOM: 0
       476   394.14842     -2015.5129      0             -1996           3730.1148    
EFLAG_ATOM: 0
       477   400.80972     -2015.8209      0             -1995.9782     -1300.0614    
EFLAG_ATOM: 0
       478   404.50179     -2015.9935      0             -1995.968      -5125.8561    
EFLAG_ATOM: 0
       479   385.70284     -2015.0614      0             -1995.9666     -3766.835     
EFLAG_ATOM: 0
       480   387.4128      -2015.2307      0             -1996.0512     -671.93887    
EFLAG_ATOM: 0
       481   403.41582     -2016.038       0             -1996.0662     -1128.8689    
EFLAG_ATOM: 0
       482   408.03589     -2016.2557      0             -1996.0553     -1932.0866    
EFLAG_ATOM: 0
       483   394.45183     -2015.6235      0             -1996.0956      106.91058    
EFLAG_ATOM: 0
       484   404.93404     -2016.1077      0             -1996.0607      992.0093     
EFLAG_ATOM: 0
       485   420.3653      -2016.917       0             -1996.1061     -2673.6693    
EFLAG_ATOM: 0
       486   409.10976     -2016.4094      0             -1996.1558     -6494.311     
EFLAG_ATOM: 0
       487   392.06503     -2015.55        0             -1996.1402     -2038.9363    
EFLAG_ATOM: 0
       488   388.81701     -2015.4155      0             -1996.1665      2825.7489    
EFLAG_ATOM: 0
       489   405.0699      -2016.2278      0             -1996.1741      1302.9238    
EFLAG_ATOM: 0
       490   416.97776     -2016.8608      0             -1996.2177     -2219.9388    
EFLAG_ATOM: 0
       491   417.81675     -2016.9614      0             -1996.2767     -2555.4546    
EFLAG_ATOM: 0
       492   413.68551     -2016.7603      0             -1996.2801     -2027.6881    
EFLAG_ATOM: 0
       493   424.91056     -2017.3157      0             -1996.2798     -1528.1146    
EFLAG_ATOM: 0
       494   389.46101     -2015.587       0             -1996.3061     -2070.3847    
EFLAG_ATOM: 0
       495   410.38092     -2016.6387      0             -1996.3221     -3598.6772    
EFLAG_ATOM: 0
       496   400.33521     -2016.1666      0             -1996.3474     -3281.8669    
EFLAG_ATOM: 0
       497   403.30026     -2016.2687      0             -1996.3026     -2226.0222    
EFLAG_ATOM: 0
       498   406.17731     -2016.4952      0             -1996.3868     -361.38702    
EFLAG_ATOM: 0
       499   397.45431     -2016.0776      0             -1996.401      -2161.6452    
EFLAG_ATOM: 0
       500   394.29573     -2015.9863      0             -1996.4661     -2013.3618    
EFLAG_ATOM: 0
       501   416.96198     -2017.1169      0             -1996.4746      2280.8465    
EFLAG_ATOM: 0
       502   420.81097     -2017.2546      0             -1996.4217      3234.7567    
EFLAG_ATOM: 0
       503   402.74179     -2016.3602      0             -1996.4218     -1152.3724    
EFLAG_ATOM: 0
       504   408.75732     -2016.6119      0             -1996.3757     -2635.5274    
EFLAG_ATOM: 0
       505   424.75855     -2017.3807      0             -1996.3524     -455.11676    
EFLAG_ATOM: 0
       506   433.81686     -2017.803       0             -1996.3262      2118.9448    
EFLAG_ATOM: 0
       507   421.66154     -2017.3029      0             -1996.4278      554.37784    
EFLAG_ATOM: 0
       508   402.48502     -2016.4524      0             -1996.5267     -4023.2729    
EFLAG_ATOM: 0
       509   420.74917     -2017.3762      0             -1996.5463     -5491.2365    
EFLAG_ATOM: 0
       510   425.60616     -2017.5961      0             -1996.5257     -316.93049    
EFLAG_ATOM: 0
       511   398.62515     -2016.2875      0             -1996.5529      4263.9966    
EFLAG_ATOM: 0
       512   407.5981      -2016.7064      0             -1996.5276     -639.62105    
EFLAG_ATOM: 0
       513   406.20745     -2016.6219      0             -1996.512      -2497.3535    
EFLAG_ATOM: 0
       514   399.07214     -2016.2145      0             -1996.4578      946.14784    
EFLAG_ATOM: 0
       515   414.58686     -2017.0116      0             -1996.4868      455.12721    
EFLAG_ATOM: 0
       516   414.41365     -2017.0496      0             -1996.5333      2534.7842    
EFLAG_ATOM: 0
       517   400.26488     -2016.3591      0             -1996.5434      3100.7194    
EFLAG_ATOM: 0
       518   402.25554     -2016.5084      0             -1996.5941     -1633.7443    
EFLAG_ATOM: 0
       519   399.37819     -2016.3632      0             -1996.5913     -3713.8104    
EFLAG_ATOM: 0
       520   389.95761     -2015.9127      0             -1996.6072     -2807.5411    
EFLAG_ATOM: 0
       521   391.83211     -2016.0573      0             -1996.659       1279.5765    
EFLAG_ATOM: 0
       522   396.45626     -2016.2694      0             -1996.6422      3068.0446    
EFLAG_ATOM: 0
       523   398.70447     -2016.4312      0             -1996.6926     -94.044669    
EFLAG_ATOM: 0
       524   400.67917     -2016.496       0             -1996.6597      407.88988    
EFLAG_ATOM: 0
       525   386.12975     -2015.8381      0             -1996.7221      823.18056    
EFLAG_ATOM: 0
       526   373.51059     -2015.2195      0             -1996.7282     -649.36764    
EFLAG_ATOM: 0
       527   385.98409     -2015.8323      0             -1996.7235     -4414.7601    
EFLAG_ATOM: 0
       528   394.58846     -2016.3015      0             -1996.7668     -5627.6084    
EFLAG_ATOM: 0
       529   383.48955     -2015.774       0             -1996.7888      46.18584     
EFLAG_ATOM: 0
       530   408.40484     -2017.0133      0             -1996.7946      2504.3965    
EFLAG_ATOM: 0
       531   384.90901     -2015.9132      0             -1996.8577     -975.86947    
EFLAG_ATOM: 0
       532   391.70279     -2016.2883      0             -1996.8964     -5274.7212    
EFLAG_ATOM: 0
       533   404.89656     -2016.9713      0             -1996.9262     -4293.037     
EFLAG_ATOM: 0
       534   382.81961     -2015.8695      0             -1996.9174      3632.1566    
EFLAG_ATOM: 0
       535   401.42088     -2016.7323      0             -1996.8593      4181.8767    
EFLAG_ATOM: 0
       536   383.83312     -2015.8459      0             -1996.8437     -629.33891    
EFLAG_ATOM: 0
       537   397.56109     -2016.5369      0             -1996.855      -6935.7487    
EFLAG_ATOM: 0
       538   369.61395     -2015.1135      0             -1996.8152     -3857.3697    
EFLAG_ATOM: 0
