384
Lattice="15.659926093578173 0.0 0.0 0.0 15.659926093578173 0.0 0.0 0.0 15.659926093578173" Properties=species:S:1:pos:R:3 #=T CELL(abcABC):=T 15.65068=T 90.00000=T Traj:=T x_centroid=T Step:=T 4=T Bead:=T 0=T pbc="T T T"
O        0.06095749       5.65536910       4.96265010
H        0.19179324       6.26730040       4.12967829
H       -0.85307168       5.14003483       4.76561376
O        0.13982956      12.55431245      12.28025063
H        0.90326131      12.45655473      11.59264465
H       -0.07948593      11.60785363      12.55481274
O        0.26120722      13.00647942       9.07624889
H        0.55911412      12.78564903       8.11707256
H        1.08017777      12.59933903       9.58423882
O        9.65985347       2.78663531       6.14488813
H       10.66599753       2.46573584       6.05519517
H        9.11097940       2.31254540       5.44415439
O        8.55412061       0.07697615      12.08973815
H        9.19999195      -0.66926415      11.99368143
H        8.74526347       0.69452607      11.23813533
O        0.73087553       4.79600170       1.67391833
H       -0.04313427       4.16284787       1.60388698
H        1.42312025       4.46822818       0.94775959
O        4.61609548      11.84719494       8.41697964
H        4.91078948      12.66867997       7.85529801
H        3.71464324      11.63897200       7.95986975
O        7.18216056      11.14948299      14.25241506
H        7.83618672      10.68670976      14.92120993
H        6.27725628      10.90373790      14.58050877
O       14.81854932      13.69468576       1.95286303
H       14.64624759      12.98356589       1.25630176
H       15.89478476      13.84267313       1.88685406
O        1.71096020      13.63635131       1.33402765
H        1.81581211      12.67008080       1.68700606
H        1.35231845      13.46585065       0.37795215
O        0.82906450       7.26163749       2.78868652
H        0.49196547       6.35737359       2.34460433
H        1.83037071       7.39379552       2.56979729
O       14.68286921       6.56365538       9.69791594
H       13.75512144       6.77015731      10.04583136
H       14.90730172       5.83270380      10.40244192
O        9.62273155       6.62487152       2.76420207
H        9.32171382       5.80690857       2.23071708
H        9.97468936       6.34709752       3.67409930
O        9.75547993       7.50275986      13.09653259
H        9.46860055       7.51758861      12.06002060
H       10.17740905       8.39061407      13.36829304
O       14.88448825      15.52956913       9.55797332
H       15.46603161      15.76420766      10.40884570
H       15.28962746      14.64894918       9.17832916
O        7.45945429       7.80372756       0.69548464
H        6.65017647       8.19252712       1.20846351
H        7.30843512       7.94758249      -0.32432749
O       15.44241767      13.91001289       4.52418121
H       15.18386501      13.75642221       3.46728719
H       16.32724010      14.42011407       4.28935256
O        9.38324015       2.06964198      10.23384237
H        8.90775941       2.80645702      10.78816966
H        8.66424563       1.85093285       9.52239231
O       13.84987739      11.09525097       9.05580682
H       13.98385649      10.40874564       8.29032486
H       14.74640672      11.57773585       9.10319480
O        2.82385729       0.04728882       6.70932139
H        2.18492004      -0.72179017       6.64456315
H        3.67174791      -0.33898515       6.30400207
O        3.55591952       7.14933118       2.32745420
H        3.94763080       6.15341316       2.37160026
H        4.45478024       7.63296673       2.26604794
O       15.28342380       9.84856489      13.26573249
H       15.58169991       9.42824672      12.33528312
H       14.76641854       9.12506772      13.75992428
O       13.17768050      13.77313207      11.18400337
H       13.79404442      14.36628229      10.59075310
H       13.77243166      12.88670870      11.24624012
O       14.65675379       8.71926812       1.08116835
H       14.02117853       8.26517001       1.80428530
H       15.65174126       8.39669766       1.28407816
O       13.24682132      10.12687922       4.53627836
H       13.41231904       9.80524932       5.49721572
H       13.04029939      11.11086019       4.70370721
O        8.80583923       9.16319022       3.85793784
H        9.19808082       9.80175725       3.17300344
H        8.87874228       8.26623063       3.43454786
O        5.23450061      14.07701149       6.56170423
H        5.34636666      14.73880223       7.39770783
H        6.08182089      14.23320371       6.02558769
O        0.48216268       1.05342197      11.57323319
H        1.46362417       0.87427220      11.50339195
H        0.08184162       0.52683606      12.33318188
O        7.51721839       1.64127906       7.83935859
H        7.29498718       0.76083422       7.37303326
H        8.30515361       2.11094637       7.44742719
O       11.82538206       7.06222975      10.26706198
H       11.14738175       6.84089907       9.50788374
H       11.57733561       8.06804362      10.45477281
O        4.31649859      12.72211152      12.27324650
H        4.17897739      13.11464328      13.21940514
H        5.11692118      13.31436120      11.88191544
O       11.57023141       9.78385668      10.51070584
H       11.14277903       9.87794224      11.42504569
H       12.31997408      10.53682126      10.41604995
O       12.46325868      11.90182720      14.61733051
H       13.27423751      11.47937777      15.04958573
H       12.02079744      12.30646611      15.48504284
O        5.14601836      10.86651592       0.33847184
H        4.93950643      11.87381066       0.40049246
H        5.37601416      10.66769853       1.36780759
O        2.58441592       7.92370840      12.34719015
H        3.22439378       8.69570421      12.74262363
H        2.10908527       7.60892254      13.24882251
O       15.04558337       4.95094319      11.93804858
H       14.00466878       4.75176559      11.98847836
H       15.45932765       4.16778078      11.46206755
O        9.29116579       7.22483576       8.12538747
H        8.52975623       7.92216749       7.89913389
H        9.39975990       7.23881401       9.13962631
O        0.02521839       7.26799124       7.16293922
H        0.04783104       6.55778191       6.37108168
H       -0.65213004       6.86869549       7.84163994
O       14.28823621       3.17469444       0.78816636
H       14.16766502       2.52236928      -0.05684386
H       13.29545004       3.27247217       1.15676299
O        6.60840180      14.13504576      11.10155469
H        7.07059469      14.84486486      11.68019634
H        6.12174446      14.61863128      10.39533772
O        8.33072871      12.06292231      10.44336608
H        7.81346330      12.91122318      10.49149450
H        7.63656886      11.35770593      10.71242494
O        4.42997559      13.18398422      15.09381184
H        5.37490351      13.64445610      15.33405369
H        3.71958616      13.90080746      15.27972161
O        1.45538931       6.80219622      14.65004983
H        0.52399238       6.29594732      14.70558262
H        1.97930864       6.09532887      15.19607222
O        7.27481527       7.41873024      13.75201961
H        7.08769479       8.10844747      13.03639708
H        8.26056729       7.17844837      13.46685124
O        2.51776657       2.47724264       2.59014930
H        3.09353652       2.44677465       1.70948933
H        2.03545179       3.38828054       2.68487523
O        0.54344186       8.77507107      10.88502685
H        1.38606838       8.47951656      11.42714693
H        0.04412515       7.89606207      10.50950513
O       10.20802713      11.46056666       2.84671078
H       11.00889999      11.41313866       3.47377102
H       10.52301310      11.58363933       1.91239914
O        2.38535839       9.54113337      15.63573181
H        2.30239941       8.52055079      15.74489626
H        2.49233155       9.98447514      16.57628714
O       13.86278501       9.33606229       7.01230027
H       14.65555308       8.66155404       6.83184373
H       12.97325980       8.80233717       7.00133380
O        4.23515056      15.36146988       2.28389848
H        3.25722316      15.25270566       2.58545653
H        4.42575310      14.52397539       1.76806392
O        4.68082370       4.54732488       1.78288267
H        5.68936918       4.58664810       1.68019204
H        4.45910279       4.06537032       2.68790702
O        2.71073050      15.61992247      14.48725371
H        3.14032414      16.27340831      15.15875018
H        2.89931184      16.06158324      13.59352603
O        1.89816073       9.66450622       8.52727476
H        1.10348153       9.35687458       9.13893590
H        1.89986174       8.95440695       7.74336191
O        8.97930165       9.98437508       0.41164505
H        8.63665934       9.11400118       0.86859585
H        9.61383630       9.65216893      -0.31845803
O        0.29448387      14.66275734      14.30224448
H        0.12338085      13.93252618      13.56150712
H        1.32616301      14.85687195      14.32305677
O        6.99641089       9.98580592      11.70841300
H        6.13123006       9.87381980      11.27195530
H        6.81268241      10.37052307      12.67008080
O       12.06092113       0.42194913       3.70288630
H       12.69719681      -0.46297235       3.86217034
H       11.94395207       0.56285833       2.66914594
O        3.61486433       2.88507343       9.73069530
H        3.52147919       2.09891927      10.40764499
H        4.06972289       3.61530459      10.35971669
O        7.79525255       4.69447176       6.96422189
H        8.15038223       5.59495343       7.35651351
H        8.69358295       4.17630582       6.87314811
O        5.06305938       6.76269290       4.91242044
H        5.09535845       7.71603578       4.44742589
H        4.03838438       6.46178523       4.73180380
O        4.36940983      10.17140551      13.31676262
H        4.10116145      11.07924152      12.94214143
H        4.28373925      10.22773877      14.31175009
O        4.80032426       3.39336354       4.39339399
H        4.35450103       3.21892055       5.28227882
H        5.67104836       3.83797606       4.59488296
O        6.06567136       1.58331484      10.50960519
H        6.71096235       2.22541395      11.04922380
H        5.61010237       2.23018677       9.87900286
O        2.70202536       5.45151874       5.82533946
H        2.94338787       4.54006059       6.14949085
H        1.70240515       5.42816495       5.58203580
O        2.59070963       4.06674113      15.51726186
H        2.89468911       3.93654425      14.53308077
H        3.52119902       4.20497274      15.96872842
O       11.09965357       5.49790613      14.39519936
H       11.59524618       4.95243407      13.69128375
H       10.85951178       6.42165154      13.95203770
O        7.10268364      13.85427999       0.18459299
H        7.70311815      13.78744052       0.97152362
H        7.76586520      13.75111908      -0.58789811
O       12.33368218      12.71750880       7.51345617
H       11.40763541      12.75252948       7.96982563
H       12.96425449      12.04110943       8.03410358
O       12.26854372      15.43521342       0.92760769
H       12.90762105      14.87258122       1.45342815
H       12.86549618      16.03556788       0.29331318
O       12.90221786      15.64223565       7.51160508
H       12.70640224      14.60632402       7.68167549
H       13.60703400      15.79232427       8.26088748
O       12.39241686       0.38980715      12.73892144
H       12.48427109       1.06639963      11.94905508
H       12.70079894      -0.49388460      12.28235187
O        9.46155639       2.89483920       1.72780015
H        9.12564806       3.46881810       0.91797600
H        9.55204982       1.91155864       1.36754744
O        1.86110885      11.28556334       2.43778934
H        2.51018209      10.66039422       2.95648560
H        0.99085503      11.04382061       2.83544413
O        2.25925393       6.42937610       8.53617001
H        2.62675091       5.76032107       7.85180594
H        1.33281694       6.66749669       8.09091712
O       13.53529165       7.99937307      14.55909613
H       13.79174306       8.35339210      15.47783858
H       13.55950594       7.03675471      14.74970867
O       10.39523766      13.58001805      11.57353336
H       11.41694091      13.35708643      11.34279713
H        9.83844892      12.82247077      11.19891218
O        7.18739365       8.90558813       7.75209707
H        6.34783796       8.50355075       8.24579857
H        6.78286481       9.39420662       6.92323769
O        3.44818591       3.93674437      12.86899825
H        3.45173801       4.73964843      12.18849646
H        4.33975232       4.07844804      13.37659795
O        9.66419603      12.20350532       7.93614574
H        9.86656552      11.24183752       7.60585072
H        8.98744646      12.13556520       8.67457173
O        4.83175281       9.63554912      10.12067555
H        4.95566597      10.43065858       9.45906492
H        4.15244173       9.02392800       9.64597528
O       13.42892885       4.44088203       4.58701831
H       13.24622097       3.63557655       5.21004617
H       12.81986924       4.32352274       3.69807345
O        2.92893933       9.77713271       5.19441694
H        3.28123734       9.11992468       5.92001536
H        1.92039386       9.73461761       5.27813637
O       14.68066791       5.38442913      14.56309849
H       14.89919694       5.11394943      13.60683389
H       14.55849578       4.60772054      15.22268793
O        5.98450343       7.12184495      10.51720968
H        5.87526894       8.13306201      10.33990499
H        5.09645910       6.86419283      11.00950034
O        8.19358774      13.87299103       6.43303826
H        8.83146436      14.15225592       5.68026380
H        8.83776809      13.31095919       7.00551627
O        8.56269567       7.75125658      10.79857581
H        8.30430311       8.73773903      10.73113599
H        7.58530860       7.30886537      10.85430871
O       12.95634982       7.72615175       3.09040467
H       11.96406394       7.61993904       3.07288432
H       13.03519637       8.64196248       3.65242650
O        7.53124668       5.22396439       1.48928932
H        7.39331524       5.17037274       2.49763468
H        7.62920451       6.25195134       1.21384669
O        4.34821732      11.49798876       3.61364360
H        5.21733047      11.94045000       3.88510388
H        4.01606120      10.88132466       4.40167888
O        3.83996723       3.34317391       6.99005714
H        3.41732769       3.29583596       7.93186321
H        4.76645426       3.58871889       7.32210319
O        6.07340592       4.76001045       9.21788252
H        5.83899752       5.77143763       9.28539238
H        6.73134439       4.63280535       8.41337751
O       15.02307007      11.57413372      15.62902785
H       15.12803205      11.30497480      14.64324581
H       15.13923866      10.64348423      16.05567976
O        3.31911971       5.77557007      10.97367919
H        2.81608270       5.96454165      10.04162888
H        3.03125975       6.57557242      11.55802421
O       12.75853302      13.21690366       4.87954103
H       12.19710154      13.43313133       5.73844815
H       13.75522150      13.36248962       5.10219249
O        6.77561053       2.39824600       0.70971204
H        7.24040495       2.89262789       1.49294148
H        7.51620780       2.38915063       0.03309174
O       11.24303823       9.48341930      14.11483382
H       12.04671274       8.87710131      14.18387459
H       11.51499880      10.44956974      14.48505241
O        8.07143562       1.65212546       4.24780803
H        8.21588090       1.55331713       3.28262816
H        7.03289243       1.28162671       4.36609788
O        8.39690779      13.59002396       2.49746458
H        9.05517645      14.24060809       2.96358979
H        9.03357369      12.76243533       2.51963767
O        3.31026448       1.14981889      12.22181613
H        4.20005984       0.92570156      11.92053825
H        3.31152522       2.26919980      12.39852046
O       14.06530458       0.88904492      14.92281088
H       14.96043309       0.32304173      14.80564170
H       13.56620990       0.71047949      14.03298550
O       11.56833029       7.76364389       6.33041767
H       10.94996519       7.53394827       7.13651361
H       11.32158461       6.78196428       5.86992578
O       10.02301789       1.29023179      14.14445131
H       10.99559213       1.03387043      13.87389156
H        9.56406691       0.93863720      13.31776321
O        6.17691704       4.47021935      13.86038359
H        6.55041756       3.89571014      14.62263364
H        6.32660542       5.43483889      14.10502803
O       10.83199554      13.12344848       0.56713585
H       11.32728797      14.01157286       0.78072196
H       10.12687922      13.30765724      -0.16475027
O        5.52152007       9.04691157       2.88702459
H        6.35742362       9.26459009       3.43846017
H        4.79600170       9.77140934       3.16090629
O       11.90592962       3.87148584       2.27867540
H       10.88192502       3.54668407       2.11407822
H       11.96676554       4.80465681       1.81847368
O       12.59653738       2.18524023      10.57644465
H       13.07381918       1.51387384       9.95694888
H       11.59144394       2.06959195      10.34841001
O        2.37246077       0.16278711       9.41803069
H        2.45863165       0.31723230       8.33872343
H        2.37027948      -0.82663407       9.52858597
O        7.14922112       5.08024953       4.24263498
H        6.49397424       5.85609762       4.46701746
H        7.49307414       4.92409734       5.20375245
O        5.18339043      15.34996308       8.84152030
H        5.65691001      16.05618005       9.41215722
H        4.15091082      15.59610841       9.02796038
O        1.95551459       0.19995206       4.22435419
H        2.05806514       0.50692030       5.14932031
H        2.07355429       1.09519664       3.65929056
O       12.24072730       4.52459146      12.10554748
H       12.28575388       3.64547240      11.62646462
H       11.79716540       5.23137876      11.47517529
O        9.11108946       0.33149072       0.95172092
H        9.45721382       0.41707525       0.02348447
H        8.27264442      -0.24924516       0.97086123
O        6.80452760      11.68219752       4.89351928
H        7.47131129      11.85379884       4.11446931
H        7.23680283      12.26694277       5.68343567
O        1.46717627      13.25542640       6.42890582
H        0.69730571      13.38830486       5.75480781
H        2.10503288      12.71600792       5.89602119
O        8.92528976      13.28034111      13.93302648
H        8.17997971      12.69929805      13.51588018
H        9.56041476      13.26443172      13.10153554
O        0.37317333       9.86375386       4.24911881
H       -0.61232253       9.94836381       4.01134842
H        0.64683491       8.88975878       3.99484868
O        5.58267618       0.57868467       4.75410697
H        4.91739338       1.31567682       4.63418616
H        5.25983557      -0.21077945       4.18501096
O        0.77553790       3.48650854       9.72418145
H        0.60280792       2.94093642       8.83834843
H        1.80129354       3.49634435       9.80233760
O        9.08011117       3.74824308      14.69667736
H        9.58397867       4.65788015      14.52277469
H        9.71131385       2.99446802      14.27592894
O        4.19958956       8.00858851       7.38229873
H        3.40709165       7.48062679       7.79451212
H        4.49027119       7.37610508       6.62466140
O        4.20215108       1.78439356       0.59228670
H        4.21163668       0.87903701       1.13590067
H        5.21227749       2.09180506       0.64250936
O        7.33279951       3.76773458      11.56803011
H        6.95823835       3.99866093      12.49317635
H        6.87303805       4.30406125      10.78176588
O        2.30637175      11.90873127      10.39783920
H        3.11406864      11.88251580      11.12076604
H        2.37694342      11.16839416       9.70703132
O       10.30338343      10.11547248       6.27572538
H       10.74084172       9.21370005       6.01002850
H        9.75525980      10.21443091       5.46893903
O       12.18779604       2.23600020       5.88114240
H       12.14717206       1.41232388       6.55036753
H       12.02319886       1.77304686       4.99603981
O        9.59758671      15.10221681       4.35951399
H       10.49929910      15.46363019       4.11358879
H        9.07095577      15.98683911       4.55257798
O       11.04181942       5.32618474       5.51749770
H       10.62167136       4.46176436       5.90999944
H       12.03370506       5.19377656       5.17672650
